20
9	15	68	58	64
7	73	79	97	59
9	78	75	2	9
5	70	45	82	83
3	21	77	29	74
8	95	81	88	32
2	9	27	34	14
4	51	27	82	58
7	86	68	17	86
1	40	79	57	30
1	67	46	28	87
5	16	38	82	90
8	62	37	19	13
3	72	46	54	98
3	16	32	94	3
7	45	80	47	85
3	88	76	56	94
1	54	21	58	3
6	36	63	63	64
8	49	28	65	76
